p cnf 136 488
-4 2 0
-4 -3 0
-2 3 4 0
1 4 -5 0
-1 -4 -5 0
1 -4 5 0
-1 4 5 0
5 -6 -7 0
-5 6 -7 0
5 6 7 0
-5 -6 7 0
-1 3 -8 0
1 -3 -8 0
-1 -3 8 0
1 3 8 0
9 10 -11 0
-9 -10 -11 0
9 -10 11 0
-9 10 11 0
-12 -6 0
-12 2 0
6 -2 12 0
13 -4 0
13 12 0
4 -12 -13 0
13 12 -14 0
-13 -12 -14 0
13 -12 14 0
-13 12 14 0
-15 -12 0
-15 -14 0
12 14 15 0
-16 -11 0
-16 -15 0
11 15 16 0
-8 16 -17 0
8 -16 -17 0
-8 -16 17 0
8 16 17 0
-18 7 0
-18 -17 0
-7 17 18 0
19 -10 0
19 -15 0
10 15 -19 0
20 -18 0
20 -19 0
18 19 -20 0
-22 9 0
-22 13 0
-9 -13 22 0
-23 2 0
-23 -22 0
-2 22 23 0
-24 21 0
-24 -23 0
-21 23 24 0
-11 -24 -25 0
11 24 -25 0
-11 24 25 0
11 -24 25 0
6 -28 -29 0
-6 28 -29 0
6 28 29 0
-6 -28 29 0
-30 -29 0
-30 11 0
29 -11 30 0
31 27 0
31 -30 0
-27 30 -31 0
-32 31 0
-32 2 0
-31 -2 32 0
33 -26 0
33 -32 0
26 32 -33 0
-34 -25 0
-34 -33 0
25 33 34 0
36 35 0
36 1 0
-35 -1 -36 0
-36 27 -37 0
36 -27 -37 0
-36 -27 37 0
36 27 37 0
38 34 0
38 -37 0
-34 37 -38 0
-39 -20 0
-39 38 0
20 -38 39 0
40 -1 0
40 9 0
1 -9 -40 0
40 12 -41 0
-40 -12 -41 0
40 -12 41 0
-40 12 41 0
-9 -41 -42 0
9 41 -42 0
-9 41 42 0
9 -41 42 0
-43 22 0
-43 40 0
-22 -40 43 0
-44 -42 0
-44 43 0
42 -43 44 0
-6 -36 -45 0
6 36 -45 0
-6 36 45 0
6 -36 45 0
46 3 0
46 -3 0
46 -27 -47 0
-46 27 -47 0
46 27 47 0
-46 -27 47 0
-49 -48 0
-49 -48 0
48 49 0
50 47 0
50 49 0
-47 -49 -50 0
-51 45 0
-51 -50 0
-45 50 51 0
-44 -51 -52 0
44 51 -52 0
-44 51 52 0
44 -51 52 0
-8 -11 -53 0
8 11 -53 0
-8 11 53 0
8 -11 53 0
54 21 0
54 53 0
-21 -53 -54 0
-15 -54 -55 0
15 54 -55 0
-15 54 55 0
15 -54 55 0
56 6 0
56 -24 0
-6 24 -56 0
57 53 0
57 -42 0
-53 42 -57 0
-58 1 0
-58 -9 0
-1 9 58 0
-57 58 -59 0
57 -58 -59 0
-57 -58 59 0
57 58 59 0
-60 56 0
-60 -59 0
-56 59 60 0
61 55 0
61 -60 0
-55 60 -61 0
62 -52 0
62 61 0
52 -61 -62 0
63 -39 0
63 -62 0
39 62 -63 0
64 35 0
64 22 0
-35 -22 -64 0
-65 64 0
-65 64 0
-64 65 0
-10 21 -66 0
10 -21 -66 0
-10 -21 66 0
10 21 66 0
66 27 -67 0
-66 -27 -67 0
66 -27 67 0
-66 27 67 0
68 65 0
68 -67 0
-65 67 -68 0
-22 4 -69 0
22 -4 -69 0
-22 -4 69 0
22 4 69 0
-70 -2 0
-70 -26 0
2 26 70 0
69 -70 -71 0
-69 70 -71 0
69 70 71 0
-69 -70 71 0
-72 71 0
-72 54 0
-71 -54 72 0
73 -72 0
73 -56 0
72 56 -73 0
74 68 0
74 -73 0
-68 73 -74 0
75 -1 0
75 28 0
1 -28 -75 0
-76 -53 0
-76 75 0
53 -75 76 0
77 76 0
77 -13 0
-76 13 -77 0
78 -22 0
78 -30 0
22 30 -78 0
79 66 0
79 49 0
-66 -49 -79 0
-80 78 0
-80 -79 0
-78 79 80 0
-47 -16 -81 0
47 16 -81 0
-47 16 81 0
47 -16 81 0
-82 80 0
-82 81 0
-80 -81 82 0
83 77 0
83 -82 0
-77 82 -83 0
40 -35 -84 0
-40 35 -84 0
40 35 84 0
-40 -35 84 0
28 -58 -85 0
-28 58 -85 0
28 58 85 0
-28 -58 85 0
-86 -84 0
-86 85 0
84 -85 86 0
87 -27 0
87 3 0
27 -3 -87 0
-88 -46 0
-88 -49 0
46 49 88 0
-89 -87 0
-89 88 0
87 -88 89 0
-66 48 -90 0
66 -48 -90 0
-66 -48 90 0
66 48 90 0
-91 -89 0
-91 -90 0
89 90 91 0
92 -10 0
92 -2 0
10 2 -92 0
-93 91 0
-93 -92 0
-91 92 93 0
86 -93 -94 0
-86 93 -94 0
86 93 94 0
-86 -93 94 0
-70 -10 -95 0
70 10 -95 0
-70 10 95 0
70 -10 95 0
-1 69 -96 0
1 -69 -96 0
-1 -69 96 0
1 69 96 0
-95 96 -97 0
95 -96 -97 0
-95 -96 97 0
95 96 97 0
-13 -69 -98 0
13 69 -98 0
-13 69 98 0
13 -69 98 0
99 8 0
99 -32 0
-8 32 -99 0
100 15 0
100 -99 0
-15 99 -100 0
101 98 0
101 -100 0
-98 100 -101 0
41 9 -102 0
-41 -9 -102 0
41 -9 102 0
-41 9 102 0
103 -102 0
103 -31 0
102 31 -103 0
104 -101 0
104 -103 0
101 103 -104 0
-105 43 -106 0
105 -43 -106 0
-105 -43 106 0
105 43 106 0
-107 -70 0
-107 -32 0
70 32 107 0
-108 57 0
-108 -32 0
-57 32 108 0
-109 107 0
-109 -108 0
-107 108 109 0
110 -106 0
110 109 0
106 -109 -110 0
-99 -57 -111 0
99 57 -111 0
-99 57 111 0
99 -57 111 0
-78 112 -113 0
78 -112 -113 0
-78 -112 113 0
78 112 113 0
-114 -111 0
-114 -113 0
111 113 114 0
-115 -110 0
-115 114 0
110 -114 115 0
116 104 0
116 -115 0
-104 115 -116 0
-117 35 0
-117 30 0
-35 -30 117 0
57 64 -118 0
-57 -64 -118 0
57 -64 118 0
-57 64 118 0
117 118 -119 0
-117 -118 -119 0
117 -118 119 0
-117 118 119 0
120 -24 0
120 -119 0
24 119 -120 0
-11 28 -121 0
11 -28 -121 0
-11 -28 121 0
11 28 121 0
122 -121 0
122 78 0
121 -78 -122 0
-123 120 0
-123 -122 0
-120 122 123 0
-124 -3 0
-124 -71 0
3 71 124 0
-125 66 0
-125 21 0
-66 -21 125 0
124 -125 -126 0
-124 125 -126 0
124 125 126 0
-124 -125 126 0
127 123 0
127 -126 0
-123 126 -127 0
-116 -127 -128 0
116 127 -128 0
-116 127 128 0
116 -127 128 0
-129 97 0
-129 128 0
-97 -128 129 0
130 -94 0
130 129 0
94 -129 -130 0
83 -130 -131 0
-83 130 -131 0
83 130 131 0
-83 -130 131 0
132 -4 0
132 -12 0
4 12 -132 0
-133 28 0
-133 -132 0
-28 132 133 0
-131 -133 -134 0
131 133 -134 0
-131 133 134 0
131 -133 134 0
-135 -74 0
-135 -134 0
74 134 135 0
136 -63 0
136 -135 0
63 135 -136 0
-130 112 -41 0
-105 -24 -107 0
81 27 0
12 -52 43 -116 -34 0
-98 -96 0
45 -22 0
-96 104 85 0
96 -66 0
-93 -48 0
-30 -76 -10 -8 133 0
-116 -63 0
133 -71 32 0
128 121 -136 0
-38 26 -85 119 -104 0
-50 -54 -21 0
40 -12 0
95 24 0
-81 46 29 6 41 123 0
-100 103 -128 -31 0
-127 -34 29 -21 112 20 0
78 118 16 0
-9 -34 0
-70 57 121 18 -100 -66 0
-111 44 58 10 132 -35 0
-25 -121 0
-111 86 78 -130 -124 43 0
-45 -53 103 0
-96 36 0
37 85 12 0
-8 129 0
-84 17 -50 113 -14 0
-45 -55 0
73 -9 -60 51 -96 -84 0
44 -32 0
10 -113 106 104 -19 -107 0
74 23 -115 0
-6 -118 -98 -1 -114 -94 0
10 -104 102 -7 0
-15 -74 -25 52 0
-40 98 -62 0
58 111 -124 0
-92 -27 -88 124 0
74 -45 98 -71 -90 -8 0
-87 111 23 0
106 123 0
19 103 60 -100 0
99 -14 0
118 -47 114 10 27 0
-99 103 -92 -70 97 57 0
-103 -130 -129 -42 -57 104 0
72 61 100 134 -49 116 0
106 -67 17 87 -104 -22 0
62 -104 51 -124 -18 89 0
105 -62 -119 102 0
133 96 -136 -90 13 84 0
12 57 93 -52 -87 -128 0
-13 37 -102 11 -97 0
67 -66 116 60 0
-10 -72 0
56 -93 0
73 -127 -47 93 54 0
-2 4 81 109 38 0
-56 57 -2 -33 130 34 0
128 98 0
19 -60 -1 35 -114 -59 0
57 121 -86 128 -65 0
-85 65 0
44 -95 -35 89 122 0
6 7 0
-24 -134 0
114 -61 -108 87 82 112 0
119 -106 -70 74 52 0
27 74 101 0
1 -53 -56 13 0
133 -50 -94 48 10 71 0
28 22 -48 -106 0
48 75 63 0
-80 -98 -93 128 116 70 0
5 114 -31 67 87 0
-8 118 125 -75 0
-4 133 -119 -14 49 0
136 0
